
Gurobi 9.1.2 (linux64) logging started Wed Nov 24 10:33:01 2021

Changed value of parameter LogFile to lemke_square_v-(3, 5).log-s20-l10.log
   Prev:   Default: 
Changed value of parameter Threads to 32
   Prev: 0  Min: 0  Max: 1024  Default: 0
Changed value of parameter TimeLimit to 3600.0
   Prev: inf  Min: 0.0  Max: inf  Default: inf
Changed value of parameter MIPGap to 0.4
   Prev: 0.0001  Min: 0.0  Max: inf  Default: 0.0001
Warning: variable name "X[(7, 4),(7, 3)]" has a space
Warning: constraint name "flow-constr-t0-v(3, 0)" has a space
Warning: to let Gurobi read it back, use rlp format
Gurobi Optimizer version 9.1.2 build v9.1.2rc0 (linux64)
Thread count: 16 physical cores, 32 logical processors, using up to 32 threads
Optimize a model with 5993 rows, 5440 columns and 20620 nonzeros
Model fingerprint: 0xda7d2d8b
Variable types: 0 continuous, 5440 integer (4800 binary)
Coefficient statistics:
  Matrix range     [1e+00, 1e+03]
  Objective range  [1e-01, 1e-01]
  Bounds range     [1e+00, 5e+02]
  RHS range        [1e+00, 1e+03]
Presolve removed 617 rows and 660 columns
Presolve time: 0.04s
Presolved: 5376 rows, 4780 columns, 17830 nonzeros
Variable types: 0 continuous, 4780 integer (4140 binary)

Root relaxation: objective 6.400000e+01, 126 iterations, 0.00 seconds

    Nodes    |    Current Node    |     Objective Bounds      |     Work
 Expl Unexpl |  Obj  Depth IntInf | Incumbent    BestBd   Gap | It/Node Time

     0     0   64.00000    0   42          -   64.00000      -     -    0s
     0     0   64.00000    0   69          -   64.00000      -     -    0s
     0     0   64.00000    0   69          -   64.00000      -     -    0s
     0     0   64.00000    0   54          -   64.00000      -     -    0s
     0     0   64.00000    0   54          -   64.00000      -     -    0s
H    0     0                     247.3000000   64.00000  74.1%     -    0s
     0     0   64.00000    0   50  247.30000   64.00000  74.1%     -    0s
     0     0   64.00000    0   50  247.30000   64.00000  74.1%     -    0s
H    0     0                     154.2000000   64.00000  58.5%     -    0s
     0     2   64.00000    0   50  154.20000   64.00000  58.5%     -    0s
H   32    64                     146.8000000   64.00000  56.4%  53.8    1s
H   43    64                     144.5000000   64.00000  55.7%  55.7    1s
H   63    96                     115.2000000   64.00000  44.4%  57.7    2s
H   64    96                     102.3000000   64.00000  37.4%  57.6    2s
H   65    96                      99.7000000   64.00000  35.8%  57.3    2s
H   66    96                      95.6000000   64.00000  33.1%  57.0    2s
H   67    96                      87.3000000   64.00000  26.7%  57.0    2s

Cutting planes:
  Gomory: 9
  Cover: 138
  Implied bound: 157
  Clique: 8
  MIR: 40
  Flow cover: 14
  RLT: 17
  Relax-and-lift: 63

Explored 95 nodes (6611 simplex iterations) in 2.05 seconds
Thread count was 32 (of 32 available processors)

Solution count 9: 87.3 95.6 99.7 ... 247.3

Optimal solution found (tolerance 4.00e-01)
Best objective 8.730000000000e+01, best bound 6.400000000000e+01, gap 26.6896%

Gurobi 9.1.2 (linux64) logging started Wed Nov 24 12:42:52 2021

Changed value of parameter LogFile to lemke_square_v-(3, 5).log-s20-l10.log
   Prev:   Default: 
Changed value of parameter Threads to 32
   Prev: 0  Min: 0  Max: 1024  Default: 0
Changed value of parameter TimeLimit to 3600.0
   Prev: inf  Min: 0.0  Max: inf  Default: inf
Changed value of parameter MIPGap to 0.3
   Prev: 0.0001  Min: 0.0  Max: inf  Default: 0.0001
Warning: variable name "X[(7, 4),(7, 3)]" has a space
Warning: constraint name "flow-constr-t0-v(3, 0)" has a space
Warning: to let Gurobi read it back, use rlp format
Gurobi Optimizer version 9.1.2 build v9.1.2rc0 (linux64)
Thread count: 16 physical cores, 32 logical processors, using up to 32 threads
Optimize a model with 5993 rows, 5440 columns and 20620 nonzeros
Model fingerprint: 0xda7d2d8b
Variable types: 0 continuous, 5440 integer (4800 binary)
Coefficient statistics:
  Matrix range     [1e+00, 1e+03]
  Objective range  [1e-01, 1e-01]
  Bounds range     [1e+00, 5e+02]
  RHS range        [1e+00, 1e+03]
Presolve removed 617 rows and 660 columns
Presolve time: 0.03s
Presolved: 5376 rows, 4780 columns, 17830 nonzeros
Variable types: 0 continuous, 4780 integer (4140 binary)

Root relaxation: objective 6.400000e+01, 126 iterations, 0.00 seconds

    Nodes    |    Current Node    |     Objective Bounds      |     Work
 Expl Unexpl |  Obj  Depth IntInf | Incumbent    BestBd   Gap | It/Node Time

     0     0   64.00000    0   42          -   64.00000      -     -    0s
     0     0   64.00000    0   69          -   64.00000      -     -    0s
     0     0   64.00000    0   69          -   64.00000      -     -    0s
     0     0   64.00000    0   54          -   64.00000      -     -    0s
     0     0   64.00000    0   54          -   64.00000      -     -    0s
H    0     0                     247.3000000   64.00000  74.1%     -    0s
     0     0   64.00000    0   50  247.30000   64.00000  74.1%     -    0s
     0     0   64.00000    0   50  247.30000   64.00000  74.1%     -    0s
H    0     0                     154.2000000   64.00000  58.5%     -    0s
     0     2   64.00000    0   50  154.20000   64.00000  58.5%     -    0s
H   32    64                     146.8000000   64.00000  56.4%  53.8    1s
H   43    64                     144.5000000   64.00000  55.7%  55.7    1s
H   63    96                     115.2000000   64.00000  44.4%  57.7    2s
H   64    96                     102.3000000   64.00000  37.4%  57.6    2s
H   65    96                      99.7000000   64.00000  35.8%  57.3    2s
H   66    96                      95.6000000   64.00000  33.1%  57.0    2s
H   67    96                      87.3000000   64.00000  26.7%  57.0    2s

Cutting planes:
  Gomory: 9
  Cover: 138
  Implied bound: 157
  Clique: 8
  MIR: 40
  Flow cover: 14
  RLT: 17
  Relax-and-lift: 63

Explored 95 nodes (6611 simplex iterations) in 2.06 seconds
Thread count was 32 (of 32 available processors)

Solution count 9: 87.3 95.6 99.7 ... 247.3

Optimal solution found (tolerance 3.00e-01)
Best objective 8.730000000000e+01, best bound 6.400000000000e+01, gap 26.6896%
